
Gurobi 12.0.1 (linux64, Python) logging started Fri Feb 21 17:49:38 2025

Set parameter Username
Set parameter LicenseID to value 2625993
Set parameter LogFile to value "gurobi.log"
Academic license - for non-commercial use only - expires 2026-02-21
